c --- [ banner ] -------------------------------------------------------------
c 
c CaDiCaL Radically Simplified CDCL SAT Solver
c Copyright (c) 2016-2021 A. Biere, M. Fleury, N. Froleyks
c 
c Version 1.5.2 a5f15211db36c3956764e18194dd5bd63bf3b5e6
c g++ (GCC) 9.3.0 -Wall -Wextra -O3 -DNDEBUG
c Fri Oct 21 01:27:37 EDT 2022 Linux gra-login3 3.10.0-1160.66.1.el7.x86_64 x86_64
c 
c --- [ limit ] --------------------------------------------------------------
c 
c setting conflict limit to 200000 conflicts (due to '200000')
c 
c --- [ parsing input ] ------------------------------------------------------
c 
c reading DIMACS file from '33.cubes1122.adj'
c opening file to read '33.cubes1122.adj'
c found 'p cnf 6160 1595472' header
c parsed 1595472 clauses in 19.12 seconds process time
c closing file '33.cubes1122.adj'
c after reading 1457566755 bytes 1390.0 MB
c 
c --- [ options ] ------------------------------------------------------------
c 
c all options are set to their default value
c 
c --- [ solving ] ------------------------------------------------------------
c 
c time measured in process time since initialization
c 
c  seconds    reductions  redundant   irredundant
c          MB     restarts       trail       variables
c            level   conflicts       glue         remaining
c 
c * 19.12 1367  0 0   0    0    0  0% 0 1595422 2355 38%
c { 19.80 1401  0 0   0    0    0  0% 0 1595422 2355 38%
c i 20.18 1422 1148 0   0    5    4 37% 1 1595422 2346 38%
c i 22.13 1467 348 0   1   44   31 30% 8 1595422 2344 38%
c i 22.19 1469 339 0   2   45   31 30% 8 1595422 2343 38%
c i 22.22 1469 316 0   2   48   33 30% 7 1595422 2342 38%
c i 22.22 1469 308 0   2   49   33 30% 7 1595422 2341 38%
c i 22.22 1469 302 0   2   50   33 29% 7 1595422 2340 38%
c i 22.50 1473 271 0   4   59   38 29% 13 1595422 2337 38%
c i 22.53 1473 262 0   5   62   39 29% 14 1595422 2335 38%
c i 22.54 1473 253 0   6   66   40 29% 14 1595422 2332 38%
c i 22.61 1475 241 0   8   72   43 29% 13 1595422 2329 38%
c i 22.86 1478 234 0   9   80   47 29% 16 1595422 2326 38%
c i 23.12 1480 220 0  12   92   56 28% 17 1595422 2325 38%
c i 23.12 1480 218 0  13   93   56 28% 17 1595422 2324 38%
c i 23.12 1480 215 0  13   94   56 28% 17 1595422 2323 38%
c i 23.12 1480 213 0  13   95   56 28% 17 1595422 2322 38%
c i 23.12 1480 210 0  14   96   56 28% 17 1595422 2321 38%
c i 23.13 1480 208 0  14   97   56 28% 16 1595422 2320 38%
c i 23.13 1480 206 0  14   98   56 28% 16 1595422 2319 38%
c 
c  seconds     reductions  redundant    irredundant
c          MB      restarts       trail        variables
c             level   conflicts       glue          remaining
c 
c i 23.13 1480 203 0  15   99   56 28% 16 1595422 2318 38%
c i 24.02 1488 126 0  22  190  112 25% 16 1595422 2308 37%
c i 24.13 1488 124 0  24  198  117 25% 15 1595422 2304 37%
c i 24.18 1488 125 0  28  223  132 25% 18 1595422 2303 37%
c - 27.84 1410 96 1  34  300  151 23% 15 231980 2303 37%
c i 28.31 1370 90 1  41  350  193 23% 18 231980 2302 37%
c i 28.32 1370 90 1  42  351  193 23% 18 231980 2301 37%
c i 28.35 1370 89 1  43  356  197 23% 18 231980 2300 37%
c i 28.35 1370 89 1  43  357  197 23% 18 231980 2299 37%
c i 28.50 1370 86 1  47  377  213 23% 17 231980 2298 37%
c i 28.58 1370 84 1  47  390  223 24% 17 231980 2297 37%
c i 28.59 1370 84 1  47  391  223 24% 17 231980 2296 37%
c i 28.70 1370 81 1  49  419  246 24% 18 231980 2295 37%
c i 29.19 1370 85 1  59  465  287 24% 21 231980 2294 37%
c i 29.51 1370 79 1  73  523  319 24% 20 231980 2293 37%
c i 29.60 1370 80 1  75  530  325 24% 21 231980 2292 37%
c i 29.93 1371 81 1  86  571  360 24% 22 231980 2291 37%
c i 30.32 1371 81 1 101  639  420 25% 23 231980 2290 37%
c i 30.38 1370 81 1 102  644  424 25% 24 231980 2289 37%
c i 30.46 1370 83 1 107  660  437 25% 24 231980 2288 37%
c 
c  seconds    reductions  redundant   irredundant
c          MB     restarts       trail       variables
c            level   conflicts       glue         remaining
c 
c i 30.48 1370 84 1 108  669  437 25% 24 231980 2279 37%
c i 30.96 1370 81 1 118  729  476 25% 24 231980 2278 37%
c i 31.07 1370 78 1 118  770  509 25% 24 231980 2277 37%
c i 31.07 1370 78 1 118  771  509 25% 24 231980 2276 37%
c i 31.07 1370 78 1 118  772  509 25% 24 231980 2275 37%
c i 31.07 1370 78 1 118  774  510 25% 24 231980 2274 37%
c i 31.07 1370 78 1 118  775  510 25% 24 231980 2273 37%
c i 31.11 1370 75 1 118  814  534 25% 24 231980 2272 37%
c i 31.12 1370 75 1 118  816  531 25% 24 231980 2271 37%
c i 31.12 1370 75 1 118  818  532 25% 24 231980 2270 37%
c i 31.16 1370 72 1 118  867  570 26% 24 231980 2269 37%
c i 31.18 1370 71 1 118  891  589 26% 24 231980 2268 37%
c i 31.23 1370 70 1 122  920  607 26% 24 231980 2267 37%
c i 31.25 1370 68 1 122  988  666 26% 23 231980 2266 37%
c } 31.30 1370 67 1 122 1001  678 26% 23 231980 2266 37%
c [ 31.30 1370  0 1 122 1001  678  0% 0 231980 2266 37%
c O 31.31 1370  4 1 122 1002  679 17% 3 231980 2266 37%
c ] 31.41 1370 13 1 122 1019  693 31% 9 231980 2266 37%
c 1 31.41 1370 13 1 122 1019  693 31% 9 231980 2266 37%
c 
c --- [ writing output ] -----------------------------------------------------
c 
c writing simplified CNF to DIMACS file 'simp/33.cubes1122.adj.simp1'
c * 31.41 1370 13 1 122 1019  693 31% 9 231980 2266 37%
c opening file to write 'simp/33.cubes1122.adj.simp1'
c writing 'p cnf 6160 231875' header
c closing file 'simp/33.cubes1122.adj.simp1'
c after writing 102527645 bytes 97.8 MB
c wrote 231875 clauses in 0.88 seconds process time
c 
c --- [ writing extension ] --------------------------------------------------
c 
c writing extension stack to 'simp/33.cubes1122.adj.ext1'
c opening file to write 'simp/33.cubes1122.adj.ext1'
c closing file 'simp/33.cubes1122.adj.ext1'
c after writing 11158 bytes 0.0 MB
c wrote 750 witnesses in 0.00 seconds process time
c 
c --- [ result ] -------------------------------------------------------------
c 
s SATISFIABLE
c 
c --- [ run-time profiling ] -------------------------------------------------
c 
c process time taken by individual solving procedures
c (percentage relative to process time for solving)
c 
c        19.12  155.57% parse
c        12.29  100.00% search
c        11.49   93.55% unstable
c         0.68    5.56% lucky
c         0.11    0.89% stable
c         0.00    0.00% simplify
c   =================================
c        12.29   38.05% solve
c 
c last line shows process time for solving
c (percentage relative to total process time)
c 
c --- [ statistics ] ---------------------------------------------------------
c 
c chronological:               392        38.47 %  of conflicts
c conflicts:                  1019        82.93    per second
c decisions:                 17792      1447.94    per second
c fixed:                       750        12.18 %  of all variables
c learned:                     979        96.07 %  per conflict
c learned_lits:              95928       100.00 %  learned literals
c minimized:                     0         0.00 %  learned literals
c shrunken:                  49548        51.65 %  learned literals
c minishrunken:               5599         5.84 %  learned literals
c propagations:             197340         0.02 M  per second
c rephased:                      1      1019.00    interval
c restarts:                    122         8.35    interval
c stabilizing:                   1         1.77 %  of conflicts
c subsumed:                    217         0.01 %  of all clauses
c 
c seconds are measured in process time for solving
c 
c --- [ resources ] ----------------------------------------------------------
c 
c total process time since initialization:        32.29    seconds
c total real time since initialization:           32.36    seconds
c maximum resident set size of process:         1488.71    MB
c 
c --- [ shutting down ] ------------------------------------------------------
c 
c exit 10
WARNING! DIMACS header mismatch: wrong number of variables.
============================[ Problem Statistics ]=============================
|                                                                             |
|  Number of variables:          6120                                         |
|  Number of clauses:          231875                                         |
|  Parse time:                   1.35 s                                       |
|  Simplification time:          0.03 s                                       |
|                                                                             |
============================[ Search Statistics ]====================================================
| Conflicts |          ORIGINAL         |          LEARNT          | Num Sols |      SUBGRAPHS      |
|           |    Vars  Clauses Literals |    Limit  Clauses Lit/Cl |          | Canonical Noncanon. |
=====================================================================================================
|       168 |    6023   231943 22457700 |     2000      164     43 |        0 |        39        68 |
|       387 |    6018   232012 22459417 |     2000      378     49 |        0 |        68       137 |
|       626 |    6007   232026 22459800 |     2000      606     62 |        0 |        91       151 |
|       985 |    6001   232048 22460532 |     2000      959     77 |        0 |       121       173 |
|      1535 |    5994   232092 22462063 |     2000     1502     85 |        0 |       152       217 |
|      3552 |    5992   233350 22485925 |     3583     2534     27 |        0 |       535      1475 |
|      5376 |    5990   234035 22500482 |     4992     2566     38 |        0 |       948      2160 |
|      7261 |    5989   234212 22504876 |     4992     4450     63 |        0 |      1019      2337 |
|     11131 |    5989   235520 22529925 |     6301     5832     47 |        0 |      1382      3645 |
|     22134 |    5987   242679 22645395 |     9992     5526     36 |        0 |      2494     10804 |
|     36616 |    5987   251395 22796762 |    12406     9422     36 |        0 |      3590     19520 |
|     50229 |    5987   256359 22887187 |    14809    10038     44 |        0 |      4660     24484 |
|     66756 |    5987   259912 22953691 |    17210    11166     44 |        0 |      6024     28037 |
|     97721 |    5987   271416 23145935 |    20815    14536     50 |        0 |      7910     39541 |
|    141430 |    5987   285933 23400985 |    25619    13049     21 |        0 |     10945     54058 |
|    223259 |    5987   323856 24010221 |    31613    24872     35 |        0 |     17027     92098 |
|    336581 |    5987   371494 24787836 |    38818    34399     43 |        0 |     25728    139736 |
|    487181 |    5987   423568 25594208 |    47213    36594     43 |        0 |     38747    191810 |
|    793605 |    5971   582199 27670017 |    60423    50428     30 |        0 |     62414    350445 |
=====================================================================================================
Number of solutions   : 0
Canonical subgraphs   : 73398          (39 /sec)
          order  3    : 1              (200000 /sec)
          order  4    : 1              (500000 /sec)
          order  5    : 1              (200000 /sec)
          order  6    : 1              (52632 /sec)
          order  7    : 2              (10152 /sec)
          order  8    : 6              (2610 /sec)
          order  9    : 15             (628 /sec)
          order 10    : 69             (211 /sec)
          order 11    : 363            (76 /sec)
          order 12    : 2244           (60 /sec)
          order 13    : 18326          (52 /sec)
          order 14    : 9517           (57 /sec)
          order 15    : 16988          (41 /sec)
          order 16    : 17643          (33 /sec)
          order 17    : 5067           (23 /sec)
          order 18    : 2408           (22 /sec)
          order 19    : 621            (20 /sec)
          order 20    : 80             (28 /sec)
          order 21    : 45             (34 /sec)
          order 22    : 0              (-nan /sec)
Noncanonical subgraphs: 457721         (347 /sec)
          order  3    : 0              (-nan /sec)
          order  4    : 0              (-nan /sec)
          order  5    : 0              (-nan /sec)
          order  6    : 0              (-nan /sec)
          order  7    : 0              (-nan /sec)
          order  8    : 0              (-nan /sec)
          order  9    : 0              (-nan /sec)
          order 10    : 0              (-nan /sec)
          order 11    : 0              (-nan /sec)
          order 12    : 0              (-nan /sec)
          order 13    : 35846          (2912 /sec)
          order 14    : 336880         (354 /sec)
          order 15    : 39032          (401 /sec)
          order 16    : 31683          (257 /sec)
          order 17    : 14184          (105 /sec)
          order 18    : 32             (2031 /sec)
          order 19    : 14             (213 /sec)
          order 20    : 1              (13889 /sec)
          order 21    : 2              (426 /sec)
Canonicity checking   : 1873.14 s
Noncanonicity checking: 1320.56 s
Total canonicity time : 3193.7 s
database reductions   : 54
restarts              : 2046
conflicts             : 982057         (276 /sec)
decisions             : 1663071        (0.00 % random) (467 /sec)
propagations          : 105074210      (29505 /sec)
conflict literals     : 64377143       (55.73 % deleted)
actual reward         : 0.093117
Memory used           : 392.00 MB
CPU time              : 3561.28 s

UNSATISFIABLE
